
x = 100;
y = 200;
c = 20000;
n = 192;
w = [1156 1156 36 36 36 36 36 16 4 4 2025 36 36 36 36 36 36 36 9 9 16 16 16 4 4 16 1 1 1 1 4225 196 196 196 196 81 25 16 1 1 1 1 144 25 25 4 4 1 1 81 9 9 9 1521 36 36 36 36 36 36 9 9 100 64 4 4 4 4 900 144 144 36 36 289 81 64 1 1 1 1 1 1 1 1 676 16 16 4 4 225 4 4 4 4 4 4 4 1 1 100 1 1 1 1 1 1 1 1 1 1 1225 1225 1 1 1 1 1 1 1 1 1 1 1 1 1 1 1 1 1 1 1 1 1 1 1 1 1 1 1 1 1 1 1 1 1 1 1 16 9 1 1 1 49 676 256 100 36 16 4 4 324 324 36 36 36 64 64 36 4 4 4 64 25 9 4 1 1 4 4 16 1 1 1 1 100 64 4 4 4 4 25 25];
p = [1156 1156 36 36 36 36 36 16 4 4 2025 36 36 36 36 36 36 36 9 9 16 16 16 4 4 16 1 1 1 1 4225 196 196 196 196 81 25 16 1 1 1 1 144 25 25 4 4 1 1 81 9 9 9 1521 36 36 36 36 36 36 9 9 100 64 4 4 4 4 900 144 144 36 36 289 81 64 1 1 1 1 1 1 1 1 676 16 16 4 4 225 4 4 4 4 4 4 4 1 1 100 1 1 1 1 1 1 1 1 1 1 1225 1225 1 1 1 1 1 1 1 1 1 1 1 1 1 1 1 1 1 1 1 1 1 1 1 1 1 1 1 1 1 1 1 1 1 1 1 16 9 1 1 1 49 676 256 100 36 16 4 4 324 324 36 36 36 64 64 36 4 4 4 64 25 9 4 1 1 4 4 16 1 1 1 1 100 64 4 4 4 4 25 25];
s = [34 34 6 6 6 6 6 4 2 2 45 6 6 6 6 6 6 6 3 3 4 4 4 2 2 4 1 1 1 1 65 14 14 14 14 9 5 4 1 1 1 1 12 5 5 2 2 1 1 9 3 3 3 39 6 6 6 6 6 6 3 3 10 8 2 2 2 2 30 12 12 6 6 17 9 8 1 1 1 1 1 1 1 1 26 4 4 2 2 15 2 2 2 2 2 2 2 1 1 10 1 1 1 1 1 1 1 1 1 1 35 35 1 1 1 1 1 1 1 1 1 1 1 1 1 1 1 1 1 1 1 1 1 1 1 1 1 1 1 1 1 1 1 1 1 1 1 4 3 1 1 1 7 26 16 10 6 4 2 2 18 18 6 6 6 8 8 6 2 2 2 8 5 3 2 1 1 2 2 4 1 1 1 1 10 8 2 2 2 2 5 5];

